nN = 7;
nR = 15;
nH = 1;

a = [[7, 22, 9, 18, 6, 13, 10, 13, 21, 14, 15, 6, 8, 23, 19], [23, 15, 5, 5, 23, 6, 10, 13, 19, 18, 21, 14, 15, 17, 15], [12, 23, 23, 24, 25, 13, 21, 11, 12, 16, 24, 25, 16, 15, 6], [9, 12, 17, 23, 14, 21, 19, 18, 6, 7, 15, 11, 20, 16, 25], [16, 16, 7, 22, 18, 7, 13, 6, 20, 11, 7, 7, 10, 25, 7], [22, 21, 19, 17, 18, 10, 5, 10, 20, 10, 6, 17, 8, 13, 20], [7, 25, 18, 22, 12, 11, 23, 12, 21, 18, 19, 16, 20, 12, 9]];
c = [[[0, 0, 0, 0, 0, 0, 0, 0, 0, 0, 0, 0, 0, 0, 0], [50, 43, 44, 33, 50, 43, 38, 45, 36, 30, 33, 34, 34, 40, 50], [50, 47, 48, 39, 40, 39, 43, 48, 49, 30, 33, 37, 41, 47, 45], [35, 46, 49, 49, 45, 36, 39, 30, 47, 41, 30, 48, 50, 32, 35], [36, 48, 35, 45, 36, 36, 47, 30, 42, 47, 46, 38, 42, 44, 46], [32, 47, 47, 31, 47, 44, 38, 34, 33, 31, 33, 44, 42, 41, 33], [31, 42, 46, 50, 36, 31, 40, 45, 44, 41, 46, 44, 42, 30, 47]], [[0, 0, 0, 0, 0, 0, 0, 0, 0, 0, 0, 0, 0, 0, 0], [0, 0, 0, 0, 0, 0, 0, 0, 0, 0, 0, 0, 0, 0, 0], [39, 33, 35, 32, 30, 43, 38, 30, 42, 35, 37, 47, 42, 32, 41], [36, 41, 44, 39, 39, 47, 41, 46, 46, 42, 38, 37, 44, 36, 47], [48, 42, 44, 38, 44, 50, 45, 36, 48, 50, 50, 30, 44, 44, 30], [34, 48, 42, 31, 49, 48, 39, 38, 42, 38, 41, 45, 46, 47, 43], [47, 43, 36, 46, 48, 31, 37, 38, 49, 32, 35, 38, 38, 39, 37]], [[0, 0, 0, 0, 0, 0, 0, 0, 0, 0, 0, 0, 0, 0, 0], [0, 0, 0, 0, 0, 0, 0, 0, 0, 0, 0, 0, 0, 0, 0], [0, 0, 0, 0, 0, 0, 0, 0, 0, 0, 0, 0, 0, 0, 0], [45, 40, 34, 39, 47, 46, 43, 30, 48, 42, 47, 32, 44, 31, 49], [49, 40, 44, 47, 41, 33, 37, 47, 44, 32, 41, 41, 47, 39, 37], [39, 39, 34, 44, 45, 44, 35, 43, 31, 44, 41, 35, 50, 49, 48], [46, 45, 31, 35, 36, 38, 38, 38, 30, 48, 39, 43, 37, 47, 50]], [[0, 0, 0, 0, 0, 0, 0, 0, 0, 0, 0, 0, 0, 0, 0], [0, 0, 0, 0, 0, 0, 0, 0, 0, 0, 0, 0, 0, 0, 0], [0, 0, 0, 0, 0, 0, 0, 0, 0, 0, 0, 0, 0, 0, 0], [0, 0, 0, 0, 0, 0, 0, 0, 0, 0, 0, 0, 0, 0, 0], [47, 44, 31, 45, 39, 43, 36, 43, 42, 35, 37, 31, 35, 49, 31], [34, 43, 47, 31, 45, 44, 44, 32, 46, 45, 40, 49, 41, 42, 41], [42, 49, 42, 37, 40, 45, 50, 45, 36, 46, 37, 45, 38, 43, 41]], [[0, 0, 0, 0, 0, 0, 0, 0, 0, 0, 0, 0, 0, 0, 0], [0, 0, 0, 0, 0, 0, 0, 0, 0, 0, 0, 0, 0, 0, 0], [0, 0, 0, 0, 0, 0, 0, 0, 0, 0, 0, 0, 0, 0, 0], [0, 0, 0, 0, 0, 0, 0, 0, 0, 0, 0, 0, 0, 0, 0], [0, 0, 0, 0, 0, 0, 0, 0, 0, 0, 0, 0, 0, 0, 0], [41, 33, 38, 43, 43, 41, 31, 38, 46, 37, 30, 46, 30, 33, 41], [36, 38, 36, 49, 34, 49, 39, 44, 43, 48, 45, 30, 40, 30, 34]], [[0, 0, 0, 0, 0, 0, 0, 0, 0, 0, 0, 0, 0, 0, 0], [0, 0, 0, 0, 0, 0, 0, 0, 0, 0, 0, 0, 0, 0, 0], [0, 0, 0, 0, 0, 0, 0, 0, 0, 0, 0, 0, 0, 0, 0], [0, 0, 0, 0, 0, 0, 0, 0, 0, 0, 0, 0, 0, 0, 0], [0, 0, 0, 0, 0, 0, 0, 0, 0, 0, 0, 0, 0, 0, 0], [0, 0, 0, 0, 0, 0, 0, 0, 0, 0, 0, 0, 0, 0, 0], [33, 39, 40, 36, 40, 31, 48, 37, 46, 45, 40, 35, 37, 45, 32]], [[0, 0, 0, 0, 0, 0, 0, 0, 0, 0, 0, 0, 0, 0, 0], [0, 0, 0, 0, 0, 0, 0, 0, 0, 0, 0, 0, 0, 0, 0], [0, 0, 0, 0, 0, 0, 0, 0, 0, 0, 0, 0, 0, 0, 0], [0, 0, 0, 0, 0, 0, 0, 0, 0, 0, 0, 0, 0, 0, 0], [0, 0, 0, 0, 0, 0, 0, 0, 0, 0, 0, 0, 0, 0, 0], [0, 0, 0, 0, 0, 0, 0, 0, 0, 0, 0, 0, 0, 0, 0], [0, 0, 0, 0, 0, 0, 0, 0, 0, 0, 0, 0, 0, 0, 0]]];
Q = [[32], [27], [23], [27], [29], [26], [28]];

q = [[[22], [11], [22], [13], [25], [22], [20], [23], [23], [9], [25], [14], [15], [12], [17]], [[12], [5], [18], [22], [5], [21], [16], [21], [17], [22], [24], [14], [18], [8], [9]], [[11], [11], [7], [6], [5], [9], [14], [25], [5], [24], [21], [13], [8], [20], [20]], [[19], [19], [8], [14], [21], [13], [22], [17], [18], [5], [18], [17], [17], [7], [19]], [[21], [7], [22], [14], [18], [11], [18], [22], [23], [19], [20], [23], [6], [17], [8]], [[6], [20], [10], [14], [22], [17], [6], [10], [11], [17], [20], [20], [19], [6], [22]], [[14], [22], [12], [10], [5], [21], [15], [16], [23], [21], [25], [21], [7], [16], [9]]];
p = [0.88, 0.49, 0.54, 0.37, 0.35, 0.65, 0.12, 0.94, 0.52, 0.92, 0.02, 0.52, 0.4, 0.74, 0.27];
